199 127 78 66 22 150 13 70 35 73 102 41 103 11 49 47 143 88 140 161 12 190 198 7 38 117 68 165 116 196 16 61 46 178 130 115 75 110 56 15 57 188 62 147 136 10 174 118 131 4 179 2 173 144 129 124 181 170 139 97 126 86 180 93 123 168 156 183 122 31 85 98 64 74 94 0 58 112 28 184 92 151 187 182 137 155 106 18 100 80 108 159 164 67 177 17 192 24 149 55 3 194 185 81 145 69 171 91 148 138 1 189 84 175 119 163 32 195 191 158 29 87 36 172 59 166 146 44 133 52 8 125 99 43 45 83 142 51 197 72 109 153 39 186 21 9 114 152 5 53 176 77 111 95 40 167 154 120 79 25 37 135 30 71 128 89 48 104 101 162 14 132 42 121 96 26 160 6 60 20 23 157 90 50 76 65 54 141 193 169 134 63 19 27 113 82 107 105 33 34 

